c File: flat30_3_0.col
c
c SOURCE: Joseph Culberson (joe@cs.ualberta.ca)
c DESCRIPTION: Quasi-random coloring problem
c              generated with flatness = 0
c                             probability = 0.200
c                             known coloring = 3
c                             random seed = 241698
c              Creation Date:  Fri Nov 29 22:02:29 1996
c Maximum degree = 6 Minimum degree = 2
c
c cnf created by edge2cnf
p cnf 90 300
-1 -2 0
-1 -3 0
-2 -3 0
1 2 3 0
-4 -5 0
-4 -6 0
-5 -6 0
4 5 6 0
-7 -8 0
-7 -9 0
-8 -9 0
7 8 9 0
-10 -11 0
-10 -12 0
-11 -12 0
10 11 12 0
-13 -14 0
-13 -15 0
-14 -15 0
13 14 15 0
-16 -17 0
-16 -18 0
-17 -18 0
16 17 18 0
-19 -20 0
-19 -21 0
-20 -21 0
19 20 21 0
-22 -23 0
-22 -24 0
-23 -24 0
22 23 24 0
-25 -26 0
-25 -27 0
-26 -27 0
25 26 27 0
-28 -29 0
-28 -30 0
-29 -30 0
28 29 30 0
-31 -32 0
-31 -33 0
-32 -33 0
31 32 33 0
-34 -35 0
-34 -36 0
-35 -36 0
34 35 36 0
-37 -38 0
-37 -39 0
-38 -39 0
37 38 39 0
-40 -41 0
-40 -42 0
-41 -42 0
40 41 42 0
-43 -44 0
-43 -45 0
-44 -45 0
43 44 45 0
-46 -47 0
-46 -48 0
-47 -48 0
46 47 48 0
-49 -50 0
-49 -51 0
-50 -51 0
49 50 51 0
-52 -53 0
-52 -54 0
-53 -54 0
52 53 54 0
-55 -56 0
-55 -57 0
-56 -57 0
55 56 57 0
-58 -59 0
-58 -60 0
-59 -60 0
58 59 60 0
-61 -62 0
-61 -63 0
-62 -63 0
61 62 63 0
-64 -65 0
-64 -66 0
-65 -66 0
64 65 66 0
-67 -68 0
-67 -69 0
-68 -69 0
67 68 69 0
-70 -71 0
-70 -72 0
-71 -72 0
70 71 72 0
-73 -74 0
-73 -75 0
-74 -75 0
73 74 75 0
-76 -77 0
-76 -78 0
-77 -78 0
76 77 78 0
-79 -80 0
-79 -81 0
-80 -81 0
79 80 81 0
-82 -83 0
-82 -84 0
-83 -84 0
82 83 84 0
-85 -86 0
-85 -87 0
-86 -87 0
85 86 87 0
-88 -89 0
-88 -90 0
-89 -90 0
88 89 90 0
-43 -1 0
-44 -2 0
-45 -3 0
-67 -1 0
-68 -2 0
-69 -3 0
-73 -1 0
-74 -2 0
-75 -3 0
-88 -1 0
-89 -2 0
-90 -3 0
-43 -4 0
-44 -5 0
-45 -6 0
-82 -4 0
-83 -5 0
-84 -6 0
-40 -7 0
-41 -8 0
-42 -9 0
-58 -7 0
-59 -8 0
-60 -9 0
-67 -7 0
-68 -8 0
-69 -9 0
-76 -7 0
-77 -8 0
-78 -9 0
-85 -7 0
-86 -8 0
-87 -9 0
-52 -10 0
-53 -11 0
-54 -12 0
-55 -10 0
-56 -11 0
-57 -12 0
-61 -10 0
-62 -11 0
-63 -12 0
-64 -10 0
-65 -11 0
-66 -12 0
-37 -13 0
-38 -14 0
-39 -15 0
-49 -13 0
-50 -14 0
-51 -15 0
-34 -16 0
-35 -17 0
-36 -18 0
-40 -16 0
-41 -17 0
-42 -18 0
-58 -16 0
-59 -17 0
-60 -18 0
-79 -16 0
-80 -17 0
-81 -18 0
-43 -19 0
-44 -20 0
-45 -21 0
-73 -19 0
-74 -20 0
-75 -21 0
-76 -19 0
-77 -20 0
-78 -21 0
-31 -22 0
-32 -23 0
-33 -24 0
-34 -22 0
-35 -23 0
-36 -24 0
-58 -22 0
-59 -23 0
-60 -24 0
-61 -22 0
-62 -23 0
-63 -24 0
-64 -22 0
-65 -23 0
-66 -24 0
-79 -22 0
-80 -23 0
-81 -24 0
-37 -25 0
-38 -26 0
-39 -27 0
-49 -25 0
-50 -26 0
-51 -27 0
-67 -25 0
-68 -26 0
-69 -27 0
-82 -25 0
-83 -26 0
-84 -27 0
-34 -28 0
-35 -29 0
-36 -30 0
-46 -28 0
-47 -29 0
-48 -30 0
-52 -28 0
-53 -29 0
-54 -30 0
-61 -28 0
-62 -29 0
-63 -30 0
-85 -28 0
-86 -29 0
-87 -30 0
-88 -28 0
-89 -29 0
-90 -30 0
-61 -31 0
-62 -32 0
-63 -33 0
-64 -31 0
-65 -32 0
-66 -33 0
-85 -31 0
-86 -32 0
-87 -33 0
-70 -34 0
-71 -35 0
-72 -36 0
-79 -34 0
-80 -35 0
-81 -36 0
-88 -34 0
-89 -35 0
-90 -36 0
-73 -37 0
-74 -38 0
-75 -39 0
-79 -40 0
-80 -41 0
-81 -42 0
-82 -40 0
-83 -41 0
-84 -42 0
-67 -43 0
-68 -44 0
-69 -45 0
-73 -43 0
-74 -44 0
-75 -45 0
-82 -43 0
-83 -44 0
-84 -45 0
-70 -46 0
-71 -47 0
-72 -48 0
-88 -49 0
-89 -50 0
-90 -51 0
-61 -52 0
-62 -53 0
-63 -54 0
-64 -52 0
-65 -53 0
-66 -54 0
-70 -52 0
-71 -53 0
-72 -54 0
-73 -55 0
-74 -56 0
-75 -57 0
-67 -58 0
-68 -59 0
-69 -60 0
-88 -58 0
-89 -59 0
-90 -60 0
